LAMMPS (2 Aug 2023 - Update 3)
OMP_NUM_THREADS environment is not set. Defaulting to 1 thread. (src/comm.cpp:98)
  using 1 OpenMP thread(s) per MPI task
units metal
atom_style atomic

variable lp equal 4.133
variable bx equal $(5 * sqrt(2))
variable bx equal 7.0710678118654755053
variable by equal $(5 * sqrt(2))
variable by equal 7.0710678118654755053
variable bz equal 7
variable temperature equal 1900
variable random_seed equal 9
variable radius equal 9
variable run equal 30000

variable offset equal 0
# variable offset equal $(v_lp / sqrt(2))

region BOX block 0 $(v_lp * v_bx) 0 $(v_lp * v_by) 0 $(v_lp * v_bz)
region BOX block 0 29.224723266440030045 0 $(v_lp * v_by) 0 $(v_lp * v_bz)
region BOX block 0 29.224723266440030045 0 29.224723266440030045 0 $(v_lp * v_bz)
region BOX block 0 29.224723266440030045 0 29.224723266440030045 0 28.931000000000000938
create_box 2 BOX
Created orthogonal box = (0 0 0) to (29.224723 29.224723 28.931)
  1 by 1 by 1 MPI processor grid

lattice fcc ${lp}     origin 0.00001 0.00001 0.50001     orient x 1 1 0     orient y -1 1 0     orient z 0 0 1     spacing 1 1 1
lattice fcc 4.133     origin 0.00001 0.00001 0.50001     orient x 1 1 0     orient y -1 1 0     orient z 0 0 1     spacing 1 1 1
Lattice spacing in x,y,z = 4.133 4.133 4.133

create_atoms 1 region BOX
Created 1400 atoms
  using lattice units in orthogonal box = (0 0 0) to (29.224723 29.224723 28.931)
  create_atoms CPU = 0.001 seconds

# velocity all create ${temperature} ${random_seed}

# write_dump all custom ./lattice.lammpsdump id type mass x y z vx vy vz

region BUBBLE sphere $((xlo + xhi) / 2 + v_offset) $((ylo + yhi) / 2) $((zlo + zhi) / 2) ${radius} units box
region BUBBLE sphere 14.612361633220015023 $((ylo + yhi) / 2) $((zlo + zhi) / 2) ${radius} units box
region BUBBLE sphere 14.612361633220015023 14.612361633220015023 $((zlo + zhi) / 2) ${radius} units box
region BUBBLE sphere 14.612361633220015023 14.612361633220015023 14.465500000000000469 ${radius} units box
region BUBBLE sphere 14.612361633220015023 14.612361633220015023 14.465500000000000469 9 units box
delete_atoms region BUBBLE
Deleted 177 atoms, new total = 1223

pair_style eam/alloy
pair_coeff * * AlHe_Men_exp6.eam Al He

fix F_NVE all nve

velocity all create ${temperature} ${random_seed}
velocity all create 1900 ${random_seed}
velocity all create 1900 9
run 0
Neighbor list info ...
  update: every = 1 steps, delay = 0 steps, check = yes
  max neighbors/atom: 2000, page size: 100000
  master list distance cutoff = 8.5
  ghost atom cutoff = 8.5
  binsize = 4.25, bins = 7 7 7
  1 neighbor lists, perpetual/occasional/extra = 1 0 0
  (1) pair eam/alloy, perpetual
      attributes: half, newton on
      pair build: half/bin/atomonly/newton
      stencil: half/bin/3d
      bin: standard
Per MPI rank memory allocation (min/avg/max) = 3.504 | 3.504 | 3.504 Mbytes
   Step          Temp          E_pair         E_mol          TotEng         Press     
         0   1900          -4111.6559      0             -3811.5397     -30323.201    
Loop time of 1.26e-06 on 1 procs for 0 steps with 1223 atoms

79.4% CPU use with 1 MPI tasks x 1 OpenMP threads

MPI task timing breakdown:
Section |  min time  |  avg time  |  max time  |%varavg| %total
---------------------------------------------------------------
Pair    | 0          | 0          | 0          |   0.0 |  0.00
Neigh   | 0          | 0          | 0          |   0.0 |  0.00
Comm    | 0          | 0          | 0          |   0.0 |  0.00
Output  | 0          | 0          | 0          |   0.0 |  0.00
Modify  | 0          | 0          | 0          |   0.0 |  0.00
Other   |            | 1.26e-06   |            |       |100.00

Nlocal:           1223 ave        1223 max        1223 min
Histogram: 1 0 0 0 0 0 0 0 0 0
Nghost:           4069 ave        4069 max        4069 min
Histogram: 1 0 0 0 0 0 0 0 0 0
Neighs:          79423 ave       79423 max       79423 min
Histogram: 1 0 0 0 0 0 0 0 0 0

Total # of neighbors = 79423
Ave neighs/atom = 64.941128
Neighbor list builds = 0
Dangerous builds = 0
velocity all scale ${temperature}
velocity all scale 1900

write_dump all custom ./system.lammpsdump id type mass x y z vx vy vz


thermo 1
run 1000
Per MPI rank memory allocation (min/avg/max) = 3.504 | 3.504 | 3.504 Mbytes
   Step          Temp          E_pair         E_mol          TotEng         Press     
         0   1900          -4111.6559      0             -3811.5397     -30323.201    
         1   1898.1858     -4111.3746      0             -3811.5449     -30405.086    
         2   1892.1775     -4110.4256      0             -3811.545      -30383.169    
         3   1881.9499     -4108.8105      0             -3811.5454     -30352.159    
         4   1867.4946     -4106.5277      0             -3811.5459     -30275.944    
         5   1848.8068     -4103.576       0             -3811.546      -30124.73     
         6   1825.8997     -4099.9575      0             -3811.5459     -29862.103    
         7   1798.8214     -4095.6798      0             -3811.5453     -29462.751    
         8   1767.6636     -4090.757       0             -3811.5441     -28897.26     
         9   1732.5658     -4085.2112      0             -3811.5422     -28143.49     
        10   1693.7185     -4079.0727      0             -3811.5399     -27195.426    
        11   1651.3631     -4072.3797      0             -3811.5371     -26057.827    
        12   1605.7825     -4065.1769      0             -3811.5341     -24747.052    
        13   1557.2979     -4057.5149      0             -3811.5305     -23291.296    
        14   1506.2646     -4049.4499      0             -3811.5265     -21724.705    
        15   1453.0648     -4041.0425      0             -3811.5224     -20081.364    
        16   1398.1005     -4032.3564      0             -3811.5182     -18394.327    
        17   1341.7904     -4023.4577      0             -3811.514      -16686.768    
        18   1284.5568     -4014.4131      0             -3811.5098     -14980.375    
        19   1226.8151     -4005.2884      0             -3811.5058     -13288.487    
        20   1168.9688     -3996.1475      0             -3811.502      -11618.838    
        21   1111.4135     -3987.0522      0             -3811.4979     -9983.5008    
        22   1054.541      -3978.0652      0             -3811.4942     -8391.0386    
        23   998.74844     -3969.2483      0             -3811.4901     -6856.9752    
        24   944.42338     -3960.6639      0             -3811.4866     -5378.8916    
        25   891.93212     -3952.3691      0             -3811.4832     -3963.3684    
        26   841.62769     -3944.4201      0             -3811.4801     -2611.4912    
        27   793.84422     -3936.8695      0             -3811.4771     -1326.1128    
        28   748.8931      -3929.7664      0             -3811.4743     -115.18132    
        29   707.06307     -3923.1565      0             -3811.4717      1012.7228    
        30   668.60993     -3917.0805      0             -3811.4696      2056.751     
        31   633.75143     -3911.5726      0             -3811.4678      3004.9286    
        32   602.65837     -3906.6602      0             -3811.4667      3858.9702    
        33   575.4441      -3902.3609      0             -3811.4661      4624.2312    
        34   552.16799     -3898.6842      0             -3811.466       5295.2779    
        35   532.8361      -3895.6311      0             -3811.4665      5874.7075    
        36   517.40114     -3893.194       0             -3811.4674      6361.6882    
        37   505.76423     -3891.3573      0             -3811.4688      6757.8723    
        38   497.77772     -3890.0977      0             -3811.4708      7064.9256    
        39   493.24546     -3889.384       0             -3811.473       7280.1518    
        40   491.93319     -3889.1795      0             -3811.4758      7416.8157    
        41   493.5765      -3889.4421      0             -3811.4788      7472.036     
        42   497.88991     -3890.126       0             -3811.4814      7458.7943    
        43   504.5933      -3891.187       0             -3811.4835      7400.3478    
        44   513.42981     -3892.5851      0             -3811.4858      7313.4927    
        45   524.14997     -3894.2807      0             -3811.4881      7190.9114    
        46   536.50541     -3896.2343      0             -3811.4901      7047.6721    
        47   550.26323     -3898.4095      0             -3811.4922      6889.8413    
        48   565.19482     -3900.7702      0             -3811.4944      6716.5692    
        49   581.07088     -3903.2801      0             -3811.4965      6527.1587    
        50   597.66222     -3905.9029      0             -3811.4987      6322.1217    
        51   614.74075     -3908.6028      0             -3811.5008      6105.6554    
        52   632.0821      -3911.3441      0             -3811.503       5873.6111    
        53   649.4696      -3914.0926      0             -3811.5051      5630.4111    
        54   666.696       -3916.8155      0             -3811.5069      5376.0684    
        55   683.56722     -3919.4821      0             -3811.5086      5110.6339    
        56   699.90436     -3922.0641      0             -3811.5101      4841.6995    
        57   715.54418     -3924.5358      0             -3811.5114      4569.2359    
        58   730.34557     -3926.875       0             -3811.5126      4296.4543    
        59   744.18863     -3929.0626      0             -3811.5136      4027.2704    
        60   756.97318     -3931.0827      0             -3811.5143      3763.539     
        61   768.62237     -3932.9233      0             -3811.5148      3508.1068    
        62   779.08085     -3934.5756      0             -3811.5152      3258.0856    
        63   788.31274     -3936.034       0             -3811.5153      3020.011     
        64   796.30165     -3937.2959      0             -3811.5154      2793.4347    
        65   803.04907     -3938.3617      0             -3811.5153      2581.5187    
        66   808.57179     -3939.2337      0             -3811.515       2381.6991    
        67   812.89977     -3939.9169      0             -3811.5146      2200.5683    
        68   816.07584     -3940.4179      0             -3811.5139      2037.4136    
        69   818.15459     -3940.7455      0             -3811.5132      1894.7988    
        70   819.19975     -3940.9098      0             -3811.5123      1770.9359    
        71   819.28239     -3940.922       0             -3811.5115      1668.8407    
        72   818.47921     -3940.7944      0             -3811.5108      1586.5584    
        73   816.87282     -3940.5398      0             -3811.5099      1525.2973    
        74   814.54965     -3940.1719      0             -3811.509       1484.1809    
        75   811.6017      -3939.7052      0             -3811.5079      1457.531     
        76   808.12413     -3939.1551      0             -3811.5071      1445.5326    
        77   804.21051     -3938.536       0             -3811.5062      1455.7223    
        78   799.95205     -3937.8625      0             -3811.5053      1474.3186    
        79   795.43971     -3937.1489      0             -3811.5045      1510.8074    
        80   790.76328     -3936.4095      0             -3811.5037      1566.0718    
        81   786.0123      -3935.6582      0             -3811.5029      1633.3053    
        82   781.27514     -3934.9092      0             -3811.5022      1713.7426    
        83   776.632       -3934.1751      0             -3811.5015      1804.0439    
        84   772.15781     -3933.4677      0             -3811.5008      1899.8629    
        85   767.93007     -3932.7992      0             -3811.5001      1992.7408    
        86   764.01948     -3932.1809      0             -3811.4995      2084.726     
        87   760.48483     -3931.622       0             -3811.4989      2168.8937    
        88   757.37506     -3931.1305      0             -3811.4986      2243.2982    
        89   754.7256      -3930.7116      0             -3811.4983      2312.2307    
        90   752.56324     -3930.37        0             -3811.4982      2367.3631    
        91   750.91189     -3930.1089      0             -3811.498       2405.9933    
        92   749.78697     -3929.9312      0             -3811.4979      2431.2921    
        93   749.19573     -3929.8378      0             -3811.4979      2445.9493    
        94   749.14223     -3929.8292      0             -3811.4978      2452.8974    
        95   749.62482     -3929.9056      0             -3811.498       2447.6819    
        96   750.63703     -3930.0656      0             -3811.498       2430.1854    
        97   752.17233     -3930.3083      0             -3811.4982      2404.2671    
        98   754.22009     -3930.632       0             -3811.4985      2361.2105    
        99   756.76089     -3931.0337      0             -3811.4988      2300.3362    
       100   759.77039     -3931.5092      0             -3811.499       2228.426     
       101   763.22105     -3932.0546      0             -3811.4993      2143.4342    
       102   767.08089     -3932.6648      0             -3811.4999      2043.6222    
       103   771.31419     -3933.3337      0             -3811.5         1928.6461    
       104   775.88697     -3934.0564      0             -3811.5004      1797.0486    
       105   780.76554     -3934.8273      0             -3811.5008      1649.2039    
       106   785.91069     -3935.6405      0             -3811.5013      1487.17      
       107   791.27808     -3936.4888      0             -3811.5018      1311.3113    
       108   796.8167      -3937.3641      0             -3811.5022      1125.609     
       109   802.47545     -3938.2584      0             -3811.5026      932.99051    
       110   808.20532     -3939.1639      0             -3811.5031      730.43183    
       111   813.95666     -3940.073       0             -3811.5037      526.18763    
       112   819.68036     -3940.9776      0             -3811.5042      315.55157    
       113   825.32808     -3941.87        0             -3811.5046      104.09364    
       114   830.85408     -3942.7433      0             -3811.505      -112.03502    
       115   836.21597     -3943.5907      0             -3811.5054     -324.1833     
       116   841.37821     -3944.4064      0             -3811.5057     -532.53411    
       117   846.30952     -3945.1856      0             -3811.506      -733.1005     
       118   850.98445     -3945.9242      0             -3811.5062     -928.67642    
       119   855.38269     -3946.6191      0             -3811.5064     -1116.0264    
       120   859.48689     -3947.2675      0             -3811.5065     -1294.4905    
       121   863.28527     -3947.8677      0             -3811.5067     -1464.4492    
       122   866.7696      -3948.4181      0             -3811.5067     -1623.1355    
       123   869.93348     -3948.9179      0             -3811.5068     -1774.0927    
       124   872.77369     -3949.3665      0             -3811.5067     -1917.5116    
       125   875.28991     -3949.7639      0             -3811.5067     -2051.579     
       126   877.48216     -3950.1102      0             -3811.5067     -2178.1328    
       127   879.35194     -3950.4056      0             -3811.5068     -2297.2731    
       128   880.90158     -3950.6504      0             -3811.5068     -2406.1395    
       129   882.13289     -3950.845       0             -3811.5069     -2509.9064    
       130   883.04917     -3950.9896      0             -3811.5067     -2604.8616    
       131   883.65704     -3951.0856      0             -3811.5067     -2692.0445    
       132   883.96674     -3951.1343      0             -3811.5065     -2771.5718    
       133   883.99387     -3951.1385      0             -3811.5065     -2846.1451    
       134   883.75677     -3951.101       0             -3811.5064     -2913.6979    
       135   883.27252     -3951.0244      0             -3811.5063     -2970.0712    
       136   882.5593      -3950.9114      0             -3811.5059     -3017.3735    
       137   881.63776     -3950.7656      0             -3811.5057     -3052.8569    
       138   880.53766     -3950.5916      0             -3811.5055     -3083.0409    
       139   879.2921      -3950.3946      0             -3811.5052     -3103.7591    
       140   877.93162     -3950.1793      0             -3811.5048     -3117.1697    
       141   876.48794     -3949.9509      0             -3811.5045     -3120.602     
       142   874.99306     -3949.7145      0             -3811.5042     -3114.4265    
       143   873.48042     -3949.4753      0             -3811.5039     -3102.1867    
       144   871.98431     -3949.2387      0             -3811.5036     -3082.5638    
       145   870.54032     -3949.0103      0             -3811.5033     -3060.3599    
       146   869.18033     -3948.7952      0             -3811.503      -3033.9151    
       147   867.93048     -3948.5974      0             -3811.5027     -3005.6015    
       148   866.81553     -3948.4212      0             -3811.5025     -2975.6453    
       149   865.85265     -3948.2689      0             -3811.5024     -2945.2614    
       150   865.05629     -3948.143       0             -3811.5023     -2915.3949    
       151   864.44351     -3948.0461      0             -3811.5022     -2885.4822    
       152   864.0278      -3947.9804      0             -3811.5021     -2856.4685    
       153   863.81969     -3947.9475      0             -3811.5021     -2831.2469    
       154   863.82784     -3947.9486      0             -3811.5019     -2811.5548    
       155   864.0593      -3947.9851      0             -3811.5018     -2799.0317    
       156   864.51469     -3948.057       0             -3811.5019     -2790.1081    
       157   865.18879     -3948.1636      0             -3811.5019     -2787.7757    
       158   866.07029     -3948.3031      0             -3811.5022     -2792.4052    
       159   867.14096     -3948.4725      0             -3811.5024     -2804.533     
       160   868.38067     -3948.6685      0             -3811.5027     -2820.7612    
       161   869.76888     -3948.8881      0             -3811.5029     -2843.5285    
       162   871.28381     -3949.1276      0             -3811.5032     -2870.6122    
       163   872.90029     -3949.3833      0             -3811.5036     -2905.0519    
       164   874.59251     -3949.6508      0             -3811.5038     -2943.055     
       165   876.33949     -3949.9268      0             -3811.5038     -2982.4809    
       166   878.11981     -3950.2083      0             -3811.5041     -3026.0302    
       167   879.90999     -3950.4915      0             -3811.5045     -3069.1688    
       168   881.68553     -3950.7721      0             -3811.5047     -3111.3455    
       169   883.41967     -3951.0464      0             -3811.505      -3153.2177    
       170   885.08619     -3951.31        0             -3811.5055     -3189.9371    
       171   886.66039     -3951.559       0             -3811.5058     -3225.6135    
       172   888.12816     -3951.7909      0             -3811.5059     -3263.4088    
       173   889.47748     -3952.0043      0             -3811.5061     -3302.0133    
       174   890.6907      -3952.1964      0             -3811.5066     -3339.5453    
       175   891.75087     -3952.364       0             -3811.5067     -3375.5654    
       176   892.64661     -3952.5056      0             -3811.5068     -3408.2038    
       177   893.37173     -3952.62        0             -3811.5067     -3435.6978    
       178   893.92264     -3952.7071      0             -3811.5067     -3458.3681    
       179   894.29987     -3952.7666      0             -3811.5066     -3479.7707    
       180   894.51032     -3952.7998      0             -3811.5066     -3501.2659    
       181   894.56295     -3952.808       0             -3811.5066     -3519.0886    
       182   894.46661     -3952.7928      0             -3811.5065     -3536.4317    
       183   894.23232     -3952.7556      0             -3811.5063     -3552.8716    
       184   893.87189     -3952.6985      0             -3811.5062     -3569.4255    
       185   893.40064     -3952.6241      0             -3811.5062     -3590.9502    
       186   892.83351     -3952.5346      0             -3811.5062     -3614.1959    
       187   892.17885     -3952.4312      0             -3811.5063     -3642.3478    
       188   891.44318     -3952.315       0             -3811.5063     -3671.6016    
       189   890.63163     -3952.1869      0             -3811.5063     -3699.6643    
       190   889.75095     -3952.0476      0             -3811.5062     -3732.1617    
       191   888.8085      -3951.8987      0             -3811.5061     -3767.0292    
       192   887.80309     -3951.74        0             -3811.5063     -3807.6502    
       193   886.73667     -3951.5715      0             -3811.5062     -3846.3625    
       194   885.61982     -3951.3948      0             -3811.506      -3884.3934    
       195   884.46029     -3951.2116      0             -3811.5058     -3919.0226    
       196   883.26657     -3951.0229      0             -3811.5057     -3947.0855    
       197   882.04997     -3950.8307      0             -3811.5057     -3971.7946    
       198   880.82239     -3950.6366      0             -3811.5055     -3988.877     
       199   879.60311     -3950.4435      0             -3811.505      -4005.7469    
       200   878.41907     -3950.2564      0             -3811.5049     -4024.8412    
       201   877.29249     -3950.0782      0             -3811.5047     -4037.8207    
       202   876.24151     -3949.912       0             -3811.5044     -4055.624     
       203   875.28303     -3949.7604      0             -3811.5043     -4071.0768    
       204   874.43437     -3949.6264      0             -3811.5043     -4096.1049    
       205   873.70849     -3949.5117      0             -3811.5043     -4121.3779    
       206   873.11158     -3949.4174      0             -3811.5042     -4145.1421    
       207   872.6512      -3949.3446      0             -3811.5041     -4164.4935    
       208   872.34759     -3949.2964      0             -3811.5039     -4192.0455    
       209   872.2254      -3949.277       0             -3811.5038     -4226.1847    
       210   872.29889     -3949.2885      0             -3811.5038     -4264.2104    
       211   872.57602     -3949.3323      0             -3811.5038     -4303.1438    
       212   873.05874     -3949.4087      0             -3811.5039     -4348.678     
       213   873.7423      -3949.5165      0             -3811.5038     -4404.1781    
       214   874.62169     -3949.6556      0             -3811.504      -4465.5044    
       215   875.69075     -3949.8246      0             -3811.5041     -4532.2287    
       216   876.94032     -3950.0221      0             -3811.5042     -4597.9728    
       217   878.35826     -3950.2461      0             -3811.5043     -4667.4336    
       218   879.93008     -3950.4946      0             -3811.5045     -4738.4954    
       219   881.63638     -3950.7644      0             -3811.5048     -4814.2482    
       220   883.4501      -3951.0512      0             -3811.505      -4895.8716    
       221   885.34098     -3951.3502      0             -3811.5053     -4978.4788    
       222   887.28082     -3951.6569      0             -3811.5056     -5064.4302    
       223   889.24234     -3951.9669      0             -3811.5059     -5149.731     
       224   891.19683     -3952.2759      0             -3811.5061     -5233.4217    
       225   893.11847     -3952.5797      0             -3811.5064     -5316.0794    
       226   894.97901     -3952.8741      0             -3811.5069     -5400.1714    
       227   896.75119     -3953.1541      0             -3811.507      -5480.3039    
       228   898.40483     -3953.4158      0             -3811.5074     -5558.331     
       229   899.9166      -3953.6545      0             -3811.5073     -5635.0084    
       230   901.27823     -3953.8695      0             -3811.5073     -5707.1691    
       231   902.48403     -3954.0599      0             -3811.5072     -5773.6517    
       232   903.53073     -3954.2253      0             -3811.5073     -5836.0512    
       233   904.41761     -3954.3654      0             -3811.5073     -5896.0936    
       234   905.14521     -3954.4802      0             -3811.5072     -5952.7745    
       235   905.71446     -3954.5702      0             -3811.5072     -6006.6571    
       236   906.12684     -3954.6353      0             -3811.5072     -6057.4294    
       237   906.384       -3954.676       0             -3811.5073     -6104.2475    
       238   906.48739     -3954.6923      0             -3811.5072     -6149.5619    
       239   906.43892     -3954.6846      0             -3811.5072     -6191.0736    
       240   906.24259     -3954.6535      0             -3811.5071     -6229.4088    
       241   905.90248     -3954.5996      0             -3811.507      -6263.0329    
       242   905.42672     -3954.5244      0             -3811.5069     -6295.6677    
       243   904.82516     -3954.4292      0             -3811.5067     -6323.4775    
       244   904.10527     -3954.3154      0             -3811.5067     -6349.5604    
       245   903.27645     -3954.1844      0             -3811.5066     -6371.2166    
       246   902.3498      -3954.0381      0             -3811.5066     -6389.2725    
       247   901.3374      -3953.878       0             -3811.5065     -6408.3314    
       248   900.25051     -3953.7061      0             -3811.5062     -6422.3199    
       249   899.10099     -3953.5244      0             -3811.5061     -6437.7163    
       250   897.89865     -3953.3344      0             -3811.506      -6454.8328    
       251   896.65278     -3953.1374      0             -3811.5058     -6471.2669    
       252   895.3777      -3952.9358      0             -3811.5056     -6483.9695    
       253   894.08973     -3952.7323      0             -3811.5056     -6497.0376    
       254   892.80474     -3952.5292      0             -3811.5054     -6506.0131    
       255   891.537       -3952.3289      0             -3811.5054     -6512.5631    
       256   890.30011     -3952.1334      0             -3811.5053     -6517.1769    
       257   889.10635     -3951.9448      0             -3811.5052     -6521.1734    
       258   887.96581     -3951.7644      0             -3811.505      -6521.6331    
       259   886.88784     -3951.5941      0             -3811.5049     -6522.8338    
       260   885.88159     -3951.435       0             -3811.5048     -6520.5632    
       261   884.95407     -3951.2885      0             -3811.5048     -6514.9024    
       262   884.11225     -3951.1555      0             -3811.5048     -6508.4166    
       263   883.36272     -3951.0371      0             -3811.5047     -6497.0116    
       264   882.70836     -3950.9337      0             -3811.5047     -6484.023     
       265   882.15015     -3950.8456      0             -3811.5048     -6466.0705    
       266   881.69163     -3950.7729      0             -3811.5045     -6447.9317    
       267   881.33885     -3950.7172      0             -3811.5046     -6432.3236    
       268   881.09248     -3950.6784      0             -3811.5046     -6414.7742    
       269   880.94528     -3950.6551      0             -3811.5046     -6397.6398    
       270   880.88677     -3950.6461      0             -3811.5048     -6380.0425    
       271   880.90543     -3950.6491      0             -3811.5049     -6360.6169    
       272   880.98606     -3950.662       0             -3811.505      -6343.5892    
       273   881.11214     -3950.6822      0             -3811.5054     -6324.9827    
       274   881.26845     -3950.7071      0             -3811.5056     -6303.0556    
       275   881.43968     -3950.7343      0             -3811.5057     -6280.9588    
       276   881.61383     -3950.7619      0             -3811.5058     -6257.611     
       277   881.78505     -3950.7889      0             -3811.5058     -6235.4852    
       278   881.95206     -3950.8154      0             -3811.5059     -6215.8117    
       279   882.11519     -3950.8411      0             -3811.5059     -6197.5485    
       280   882.28683     -3950.868       0             -3811.5056     -6188.9215    
       281   882.48701     -3950.8994      0             -3811.5054     -6187.7859    
       282   882.73404     -3950.9383      0             -3811.5053     -6196.2462    
       283   883.04424     -3950.9873      0             -3811.5053     -6209.4823    
       284   883.42793     -3951.0478      0             -3811.5052     -6231.1459    
       285   883.89112     -3951.121       0             -3811.5052     -6261.9794    
       286   884.43687     -3951.2073      0             -3811.5053     -6298.1578    
       287   885.05934     -3951.306       0             -3811.5056     -6340.9669    
       288   885.74362     -3951.4141      0             -3811.5057     -6389.4841    
       289   886.4773      -3951.5301      0             -3811.5057     -6437.9358    
       290   887.25545     -3951.6531      0             -3811.5058     -6488.8878    
       291   888.07143     -3951.7821      0             -3811.506      -6540.2679    
       292   888.91958     -3951.9159      0             -3811.5058     -6593.1271    
       293   889.79774     -3952.0546      0             -3811.5058     -6652.9926    
       294   890.70052     -3952.1972      0             -3811.5058     -6711.0446    
       295   891.62117     -3952.3429      0             -3811.5061     -6763.114     
       296   892.55085     -3952.4897      0             -3811.506      -6813.6337    
       297   893.48377     -3952.6371      0             -3811.5061     -6859.653     
       298   894.41791     -3952.7846      0             -3811.506      -6902.5436    
       299   895.35092     -3952.9322      0             -3811.5062     -6939.3549    
       300   896.28272     -3953.0794      0             -3811.5062     -6972.4703    
       301   897.20535     -3953.2253      0             -3811.5065     -7010.4053    
       302   898.11008     -3953.3681      0             -3811.5063     -7045.436     
       303   898.99829     -3953.5083      0             -3811.5062     -7081.2257    
       304   899.87078     -3953.646       0             -3811.5061     -7110.9403    
       305   900.7252      -3953.7811      0             -3811.5062     -7140.3175    
       306   901.55368     -3953.9121      0             -3811.5064     -7165.5405    
       307   902.34206     -3954.0369      0             -3811.5066     -7189.769     
       308   903.06777     -3954.1516      0             -3811.5068     -7219.4728    
       309   903.70556     -3954.2526      0             -3811.507      -7245.6342    
       310   904.23622     -3954.3367      0             -3811.5072     -7268.6576    
       311   904.64397     -3954.4013      0             -3811.5074     -7291.1079    
       312   904.91558     -3954.4443      0             -3811.5075     -7307.8118    
       313   905.03268     -3954.463       0             -3811.5078     -7331.5036    
       314   904.97889     -3954.4544      0             -3811.5077     -7352.2767    
       315   904.75473     -3954.4189      0             -3811.5075     -7370.1363    
       316   904.36805     -3954.3576      0             -3811.5074     -7383.7832    
       317   903.82758     -3954.2722      0             -3811.5073     -7388.7357    
       318   903.1424      -3954.1638      0             -3811.5072     -7391.7916    
       319   902.32028     -3954.0339      0             -3811.5071     -7387.6375    
       320   901.36847     -3953.8833      0             -3811.5069     -7380.0438    
       321   900.29201     -3953.7132      0             -3811.5068     -7367.9995    
       322   899.09507     -3953.5241      0             -3811.5068     -7349.7348    
       323   897.78192     -3953.3165      0             -3811.5066     -7327.4439    
       324   896.35672     -3953.0913      0             -3811.5065     -7300.6098    
       325   894.82614     -3952.8494      0             -3811.5063     -7267.5564    
       326   893.19859     -3952.5923      0             -3811.5063     -7230.9377    
       327   891.48649     -3952.3216      0             -3811.5061     -7190.3239    
       328   889.71334     -3952.0413      0             -3811.5058     -7151.5383    
       329   887.90537     -3951.7555      0             -3811.5056     -7110.458     
       330   886.08545     -3951.4677      0             -3811.5053     -7068.571     
       331   884.27686     -3951.1818      0             -3811.5051     -7024.1662    
       332   882.50356     -3950.9015      0             -3811.5048     -6977.9313    
       333   880.78789     -3950.6302      0             -3811.5046     -6932.7616    
       334   879.14989     -3950.3713      0             -3811.5044     -6886.4713    
       335   877.60828     -3950.1276      0             -3811.5042     -6841.6789    
       336   876.1783      -3949.9018      0             -3811.5042     -6798.3499    
       337   874.86972     -3949.695       0             -3811.5042     -6761.6599    
       338   873.68777     -3949.5083      0             -3811.5042     -6722.6501    
       339   872.63426     -3949.3419      0             -3811.5042     -6686.2718    
       340   871.70856     -3949.1957      0             -3811.5042     -6649.242     
       341   870.91337     -3949.0701      0             -3811.5042     -6616.3156    
       342   870.24808     -3948.965       0             -3811.5042     -6584.5676    
       343   869.70722     -3948.8797      0             -3811.5043     -6556.5497    
       344   869.28737     -3948.8134      0             -3811.5044     -6529.8578    
       345   868.98403     -3948.7655      0             -3811.5044     -6506.9719    
       346   868.79296     -3948.7354      0             -3811.5045     -6487.3441    
       347   868.71228     -3948.7228      0             -3811.5045     -6473.32      
       348   868.7328      -3948.7262      0             -3811.5047     -6466.2519    
       349   868.84301     -3948.7435      0             -3811.5046     -6463.315     
       350   869.03636     -3948.7742      0             -3811.5047     -6459.9558    
       351   869.30484     -3948.8166      0             -3811.5048     -6458.6284    
       352   869.63936     -3948.8697      0             -3811.505      -6456.5905    
       353   870.0295      -3948.9314      0             -3811.5051     -6456.2831    
       354   870.46328     -3949.0001      0             -3811.5053     -6453.0836    
       355   870.92652     -3949.0736      0             -3811.5056     -6454.1938    
       356   871.40258     -3949.1489      0             -3811.5057     -6456.8736    
       357   871.87843     -3949.224       0             -3811.5057     -6463.9405    
       358   872.35037     -3949.2985      0             -3811.5056     -6480.5905    
       359   872.81654     -3949.3721      0             -3811.5056     -6499.3455    
       360   873.27387     -3949.4443      0             -3811.5055     -6519.3118    
       361   873.72352     -3949.5152      0             -3811.5054     -6540.5961    
       362   874.17147     -3949.586       0             -3811.5054     -6566.498     
       363   874.62114     -3949.657       0             -3811.5054     -6594.9786    
       364   875.07247     -3949.7284      0             -3811.5055     -6621.6348    
       365   875.52565     -3949.8001      0             -3811.5057     -6650.4166    
       366   875.97826     -3949.8717      0             -3811.5058     -6677.4632    
       367   876.42369     -3949.9422      0             -3811.506      -6703.755     
       368   876.85291     -3950.0101      0             -3811.506      -6729.2923    
       369   877.25404     -3950.0736      0             -3811.5062     -6748.7644    
       370   877.61224     -3950.1305      0             -3811.5065     -6769.6012    
       371   877.91842     -3950.1789      0             -3811.5065     -6790.333     
       372   878.1727      -3950.2191      0             -3811.5065     -6813.1014    
       373   878.37518     -3950.251       0             -3811.5065     -6835.1293    
       374   878.52775     -3950.2752      0             -3811.5066     -6862.4819    
       375   878.62874     -3950.291       0             -3811.5065     -6892.1381    
       376   878.67907     -3950.2989      0             -3811.5063     -6918.5516    
       377   878.68664     -3950.3         0             -3811.5063     -6940.0136    
       378   878.65929     -3950.2957      0             -3811.5063     -6954.2028    
       379   878.60352     -3950.2868      0             -3811.5062     -6963.9881    
       380   878.52316     -3950.2741      0             -3811.5062     -6967.6927    
       381   878.42131     -3950.2581      0             -3811.5063     -6970.6937    
       382   878.2958      -3950.2384      0             -3811.5064     -6968.5011    
       383   878.13809     -3950.2137      0             -3811.5066     -6965.5153    
       384   877.93715     -3950.1821      0             -3811.5067     -6959.7421    
       385   877.68191     -3950.1418      0             -3811.5068     -6957.0463    
       386   877.36077     -3950.0912      0             -3811.5069     -6952.4745    
       387   876.96891     -3950.0292      0             -3811.5068     -6951.4995    
       388   876.50609     -3949.956       0             -3811.5067     -6948.9054    
       389   875.97136     -3949.8715      0             -3811.5067     -6946.2257    
       390   875.36322     -3949.7753      0             -3811.5065     -6941.5509    
       391   874.6825      -3949.6678      0             -3811.5065     -6929.5883    
       392   873.92776     -3949.5486      0             -3811.5065     -6918.1195    
       393   873.09551     -3949.417       0             -3811.5064     -6900.883     
       394   872.18506     -3949.2732      0             -3811.5064     -6874.8169    
       395   871.19717     -3949.1172      0             -3811.5065     -6838.2557    
       396   870.14606     -3948.951       0             -3811.5063     -6803.097     
       397   869.05074     -3948.7779      0             -3811.5063     -6761.262     
       398   867.92099     -3948.5993      0             -3811.5061     -6718.0414    
       399   866.7664      -3948.4168      0             -3811.5059     -6668.7478    
       400   865.59954     -3948.2323      0             -3811.5058     -6614.3303    
       401   864.44315     -3948.0494      0             -3811.5055     -6563.3701    
       402   863.32175     -3947.8722      0             -3811.5054     -6509.464     
       403   862.25401     -3947.7034      0             -3811.5053     -6453.6311    
       404   861.25882     -3947.546       0             -3811.505      -6396.5879    
       405   860.35465     -3947.4031      0             -3811.505      -6337.1882    
       406   859.55426     -3947.2765      0             -3811.5049     -6280.2324    
       407   858.86768     -3947.1679      0             -3811.5047     -6222.848     
       408   858.31206     -3947.08        0             -3811.5045     -6162.6474    
       409   857.90492     -3947.0156      0             -3811.5045     -6104.0365    
       410   857.66073     -3946.977       0             -3811.5044     -6053.0521    
       411   857.5865      -3946.9654      0             -3811.5046     -6001.756     
       412   857.68029     -3946.9803      0             -3811.5046     -5953.8552    
       413   857.93477     -3947.0206      0             -3811.5047     -5908.7102    
       414   858.3376      -3947.0844      0             -3811.5049     -5868.248     
       415   858.87617     -3947.1696      0             -3811.5051     -5828.6451    
       416   859.53847     -3947.2744      0             -3811.5053     -5795.9692    
       417   860.31181     -3947.3966      0             -3811.5053     -5766.2423    
       418   861.18401     -3947.5348      0             -3811.5057     -5748.5637    
       419   862.13688     -3947.6852      0             -3811.5056     -5740.6353    
       420   863.16118     -3947.8469      0             -3811.5055     -5734.6311    
       421   864.26413     -3948.0209      0             -3811.5053     -5728.2402    
       422   865.45075     -3948.2083      0             -3811.5053     -5724.0586    
       423   866.72007     -3948.4091      0             -3811.5055     -5725.5336    
       424   868.06545     -3948.6217      0             -3811.5056     -5726.8907    
       425   869.47646     -3948.8446      0             -3811.5057     -5728.6086    
       426   870.9393      -3949.0758      0             -3811.5058     -5731.5003    
       427   872.4381      -3949.3128      0             -3811.506      -5733.3686    
       428   873.96284     -3949.5534      0             -3811.5059     -5736.7234    
       429   875.51187     -3949.7984      0             -3811.5061     -5740.0391    
       430   877.08072     -3950.0464      0             -3811.5063     -5742.6129    
       431   878.66069     -3950.2959      0             -3811.5063     -5744.0482    
       432   880.24312     -3950.5458      0             -3811.5062     -5746.0045    
       433   881.82062     -3950.7951      0             -3811.5063     -5743.5084    
       434   883.39155     -3951.0433      0             -3811.5064     -5745.1703    
       435   884.95368     -3951.29        0             -3811.5063     -5747.8892    
       436   886.50344     -3951.5348      0             -3811.5063     -5749.5482    
       437   888.03978     -3951.7775      0             -3811.5063     -5748.0712    
       438   889.56142     -3952.0177      0             -3811.5063     -5746.3699    
       439   891.06675     -3952.2555      0             -3811.5063     -5742.5204    
       440   892.5524      -3952.4901      0             -3811.5062     -5737.4097    
       441   894.01296     -3952.7209      0             -3811.5062     -5727.5521    
       442   895.44238     -3952.9467      0             -3811.5063     -5715.9833    
       443   896.83446     -3953.1666      0             -3811.5063     -5706.0377    
       444   898.18138     -3953.3795      0             -3811.5064     -5691.1516    
       445   899.47221     -3953.5834      0             -3811.5065     -5675.1754    
       446   900.69728     -3953.7769      0             -3811.5064     -5654.7966    
       447   901.85164     -3953.9593      0             -3811.5065     -5642.8609    
       448   902.93006     -3954.1296      0             -3811.5065     -5625.6902    
       449   903.92687     -3954.2873      0             -3811.5067     -5607.4783    
       450   904.83696     -3954.431       0             -3811.5066     -5586.8969    
       451   905.65998     -3954.5609      0             -3811.5066     -5561.5149    
       452   906.40214     -3954.6781      0             -3811.5066     -5532.4738    
       453   907.0721      -3954.7839      0             -3811.5065     -5500.7682    
       454   907.67946     -3954.8798      0             -3811.5065     -5468.2381    
       455   908.23136     -3954.9668      0             -3811.5063     -5439.8024    
       456   908.73432     -3955.0462      0             -3811.5062     -5410.4253    
       457   909.19696     -3955.1191      0             -3811.5061     -5384.4456    
       458   909.62509     -3955.1867      0             -3811.5061     -5360.5053    
       459   910.02356     -3955.2496      0             -3811.506      -5341.2326    
       460   910.3966      -3955.3085      0             -3811.506      -5329.0033    
       461   910.74472     -3955.3634      0             -3811.5059     -5320.0568    
       462   911.06767     -3955.4144      0             -3811.5058     -5317.9174    
       463   911.36621     -3955.4615      0             -3811.5059     -5324.2514    
       464   911.63873     -3955.5046      0             -3811.5059     -5332.0934    
       465   911.87749     -3955.5425      0             -3811.506      -5344.8102    
       466   912.07138     -3955.5734      0             -3811.5064     -5359.4213    
       467   912.21042     -3955.5957      0             -3811.5067     -5373.5344    
       468   912.28019     -3955.6067      0             -3811.5067     -5385.875     
       469   912.26909     -3955.6049      0             -3811.5066     -5388.9954    
       470   912.17284     -3955.5898      0             -3811.5067     -5382.168     
       471   911.9908      -3955.5611      0             -3811.5068     -5369.4617    
       472   911.72935     -3955.5197      0             -3811.5067     -5347.4054    
       473   911.39835     -3955.4674      0             -3811.5066     -5320.8056    
       474   911.00833     -3955.4056      0             -3811.5065     -5289.017     
       475   910.56962     -3955.3362      0             -3811.5064     -5256.9541    
       476   910.09374     -3955.261       0             -3811.5063     -5222.2394    
       477   909.59598     -3955.1821      0             -3811.5061     -5189.0562    
       478   909.09021     -3955.1021      0             -3811.506      -5161.1805    
       479   908.58719     -3955.0225      0             -3811.5058     -5134.9803    
       480   908.10085     -3954.9455      0             -3811.5057     -5112.378     
       481   907.6446      -3954.8733      0             -3811.5055     -5092.4546    
       482   907.22928     -3954.8076      0             -3811.5054     -5073.4367    
       483   906.8647      -3954.75        0             -3811.5054     -5060.2674    
       484   906.55639     -3954.7012      0             -3811.5053     -5044.4153    
       485   906.30697     -3954.6618      0             -3811.5052     -5033.2018    
       486   906.11734     -3954.6319      0             -3811.5053     -5023.883     
       487   905.98437     -3954.6109      0             -3811.5053     -5015.9344    
       488   905.90212     -3954.5979      0             -3811.5053     -5007.6421    
       489   905.8608      -3954.5915      0             -3811.5054     -4999.4303    
       490   905.84905     -3954.5898      0             -3811.5056     -4989.6038    
       491   905.85128     -3954.5903      0             -3811.5058     -4982.9453    
       492   905.85145     -3954.5905      0             -3811.5059     -4970.4678    
       493   905.84107     -3954.5888      0             -3811.5058     -4953.1164    
       494   905.81476     -3954.5847      0             -3811.5059     -4928.2857    
       495   905.77064     -3954.5777      0             -3811.5059     -4898.2286    
       496   905.70982     -3954.5681      0             -3811.5059     -4861.6644    
       497   905.63361     -3954.556       0             -3811.5059     -4820.4465    
       498   905.54485     -3954.542       0             -3811.5058     -4775.9865    
       499   905.45258     -3954.5273      0             -3811.5058     -4726.8548    
       500   905.36806     -3954.5139      0             -3811.5057     -4680.1377    
       501   905.30164     -3954.5034      0             -3811.5057     -4632.707     
       502   905.26058     -3954.4968      0             -3811.5056     -4581.6392    
       503   905.24937     -3954.495       0             -3811.5055     -4531.1023    
       504   905.27098     -3954.4983      0             -3811.5054     -4478.9233    
       505   905.32232     -3954.5065      0             -3811.5055     -4427.9122    
       506   905.39613     -3954.5182      0             -3811.5056     -4378.4933    
       507   905.48357     -3954.532       0             -3811.5055     -4327.356     
       508   905.57493     -3954.5466      0             -3811.5057     -4274.1537    
       509   905.66092     -3954.5603      0             -3811.5058     -4221.4901    
       510   905.73073     -3954.5714      0             -3811.5059     -4168.4213    
       511   905.77175     -3954.578       0             -3811.506      -4120.4935    
       512   905.77096     -3954.578       0             -3811.5062     -4072.9667    
       513   905.71795     -3954.5696      0             -3811.5061     -4024.1219    
       514   905.60341     -3954.5516      0             -3811.5062     -3973.1572    
       515   905.41616     -3954.522       0             -3811.5062     -3922.2216    
       516   905.14715     -3954.4796      0             -3811.5063     -3863.584     
       517   904.79077     -3954.4234      0             -3811.5063     -3798.2943    
       518   904.34355     -3954.3529      0             -3811.5065     -3726.0706    
       519   903.80236     -3954.2674      0             -3811.5065     -3644.8293    
       520   903.16398     -3954.1669      0             -3811.5068     -3554.5128    
       521   902.42711     -3954.0506      0             -3811.5069     -3458.7945    
       522   901.59253     -3953.9187      0             -3811.5069     -3356.0522    
       523   900.67916     -3953.7744      0             -3811.5068     -3257.7536    
       524   899.71236     -3953.6216      0             -3811.5067     -3161.7952    
       525   898.71004     -3953.4631      0             -3811.5066     -3071.3758    
       526   897.69116     -3953.3021      0             -3811.5065     -2988.7184    
       527   896.67092     -3953.1408      0             -3811.5064     -2911.058     
       528   895.66019     -3952.9812      0             -3811.5064     -2837.9088    
       529   894.66802     -3952.8244      0             -3811.5063     -2772.7915    
       530   893.70268     -3952.6718      0             -3811.5062     -2711.8775    
       531   892.7719      -3952.5247      0             -3811.5061     -2656.1581    
       532   891.88516     -3952.3846      0             -3811.5061     -2610.164     
       533   891.05088     -3952.2528      0             -3811.5061     -2567.5605    
       534   890.27438     -3952.1301      0             -3811.506      -2531.0202    
       535   889.55751     -3952.017       0             -3811.5061     -2498.5385    
       536   888.90032     -3951.9131      0             -3811.5061     -2470.8171    
       537   888.30475     -3951.819       0             -3811.5061     -2446.0006    
       538   887.77289     -3951.7351      0             -3811.5061     -2421.6717    
       539   887.30557     -3951.6613      0             -3811.5061     -2397.5619    
       540   886.90175     -3951.5974      0             -3811.5061     -2373.8214    
       541   886.56057     -3951.5436      0             -3811.5061     -2350.13      
       542   886.28035     -3951.4994      0             -3811.5062     -2327.7816    
       543   886.05789     -3951.4642      0             -3811.5061     -2303.5795    
       544   885.88218     -3951.4366      0             -3811.5063     -2285.0025    
       545   885.74042     -3951.414       0             -3811.5061     -2267.1093    
       546   885.63777     -3951.3976      0             -3811.5059     -2248.937     
       547   885.58806     -3951.3897      0             -3811.5058     -2232.0101    
       548   885.59866     -3951.3913      0             -3811.5058     -2209.5028    
       549   885.67434     -3951.4032      0             -3811.5057     -2188.5334    
       550   885.81969     -3951.4261      0             -3811.5057     -2168.1252    
       551   886.03731     -3951.4605      0             -3811.5057     -2150.7937    
       552   886.33028     -3951.5068      0             -3811.5057     -2135.049     
       553   886.70186     -3951.5654      0             -3811.5056     -2125.0703    
       554   887.15509     -3951.6369      0             -3811.5055     -2119.399     
       555   887.69471     -3951.7221      0             -3811.5055     -2121.0408    
       556   888.32272     -3951.8213      0             -3811.5055     -2128.4527    
       557   889.03467     -3951.9339      0             -3811.5056     -2137.1809    
       558   889.822       -3952.0585      0             -3811.5058     -2149.66      
       559   890.67007     -3952.1926      0             -3811.506      -2167.0811    
       560   891.56124     -3952.3336      0             -3811.5062     -2180.9396    
       561   892.47779     -3952.4786      0             -3811.5064     -2195.2567    
       562   893.39874     -3952.6244      0             -3811.5068     -2209.9349    
       563   894.29773     -3952.7666      0             -3811.507      -2227.3825    
       564   895.15242     -3952.9017      0             -3811.5071     -2238.5315    
       565   895.9572      -3953.0289      0             -3811.5071     -2248.6826    
       566   896.71199     -3953.1481      0             -3811.5071     -2255.8883    
       567   897.41529     -3953.2592      0             -3811.5072     -2257.2717    
       568   898.06926     -3953.3625      0             -3811.5071     -2252.6964    
       569   898.68639     -3953.4598      0             -3811.507      -2246.8377    
       570   899.27987     -3953.5536      0             -3811.5071     -2239.5416    
       571   899.85731     -3953.6448      0             -3811.507      -2227.4685    
       572   900.43061     -3953.7352      0             -3811.5068     -2211.9948    
       573   901.01705     -3953.8275      0             -3811.5065     -2197.4971    
       574   901.63422     -3953.9247      0             -3811.5063     -2185.0947    
       575   902.29635     -3954.0292      0             -3811.5062     -2172.2642    
       576   903.01232     -3954.1423      0             -3811.5062     -2165.3486    
       577   903.78641     -3954.2647      0             -3811.5063     -2156.0246    
       578   904.61985     -3954.3963      0             -3811.5063     -2149.8773    
       579   905.5104      -3954.537       0             -3811.5063     -2145.4221    
       580   906.45478     -3954.6863      0             -3811.5064     -2144.2229    
       581   907.44606     -3954.843       0             -3811.5065     -2141.916     
       582   908.47482     -3955.0056      0             -3811.5067     -2140.4461    
       583   909.5327      -3955.1731      0             -3811.507      -2138.9854    
       584   910.60625     -3955.3428      0             -3811.5072     -2133.4581    
       585   911.6776      -3955.5125      0             -3811.5077     -2127.2022    
       586   912.7298      -3955.6787      0             -3811.5076     -2124.0379    
       587   913.75466     -3955.8406      0             -3811.5077     -2122.4581    
       588   914.74538     -3955.9972      0             -3811.5078     -2123.6242    
       589   915.69924     -3956.1476      0             -3811.5075     -2129.4119    
       590   916.6209      -3956.2933      0             -3811.5076     -2137.1546    
       591   917.50709     -3956.4331      0             -3811.5075     -2144.6164    
       592   918.35647     -3956.5674      0             -3811.5076     -2148.0696    
       593   919.17004     -3956.696       0             -3811.5077     -2149.3701    
       594   919.94523     -3956.8186      0             -3811.5078     -2146.9068    
       595   920.67786     -3956.9344      0             -3811.5079     -2141.7926    
       596   921.35799     -3957.0418      0             -3811.5079     -2131.089     
       597   921.97186     -3957.1389      0             -3811.508      -2117.7211    
       598   922.50195     -3957.2228      0             -3811.5082     -2104.3397    
       599   922.9269      -3957.2901      0             -3811.5084     -2085.8708    
       600   923.22714     -3957.3378      0             -3811.5087     -2064.1559    
       601   923.38679     -3957.3632      0             -3811.5088     -2038.5844    
       602   923.39174     -3957.3641      0             -3811.5089     -2009.2027    
       603   923.22685     -3957.3382      0             -3811.5091     -1975.9434    
       604   922.87567     -3957.283       0             -3811.5094     -1938.5386    
       605   922.32032     -3957.1953      0             -3811.5094     -1897.5204    
       606   921.55131     -3957.0739      0             -3811.5095     -1850.0079    
       607   920.56859     -3956.9189      0             -3811.5096     -1799.6698    
       608   919.37504     -3956.7301      0             -3811.5094     -1744.9832    
       609   917.97998     -3956.5094      0             -3811.509      -1682.9025    
       610   916.40362     -3956.2602      0             -3811.5088     -1622.5649    
       611   914.67657     -3955.9871      0             -3811.5085     -1564.2559    
       612   912.83042     -3955.6951      0             -3811.5082     -1507.9047    
       613   910.89975     -3955.3895      0             -3811.5075     -1454.8398    
       614   908.92457     -3955.0771      0             -3811.5071     -1412.8731    
       615   906.9391      -3954.763       0             -3811.5066     -1376.0745    
       616   904.97027     -3954.4517      0             -3811.5063     -1346.5055    
       617   903.03942     -3954.1464      0             -3811.506      -1321.9999    
       618   901.16415     -3953.85        0             -3811.5058     -1300.1312    
       619   899.36104     -3953.5651      0             -3811.5057     -1280.6222    
       620   897.64432     -3953.2939      0             -3811.5057     -1259.5807    
       621   896.02455     -3953.038       0             -3811.5056     -1237.2458    
       622   894.51956     -3952.8         0             -3811.5054     -1220.1326    
       623   893.15038     -3952.5835      0             -3811.5051     -1204.5171    
       624   891.92938     -3952.3907      0             -3811.5052     -1192.1276    
       625   890.86481     -3952.2223      0             -3811.505      -1186.8611    
       626   889.97342     -3952.0813      0             -3811.5048     -1185.3211    
       627   889.27373     -3951.9705      0             -3811.5045     -1184.4841    
       628   888.77872     -3951.8921      0             -3811.5042     -1177.9884    
       629   888.50463     -3951.8485      0             -3811.504      -1166.2831    
       630   888.47555     -3951.8435      0             -3811.5035     -1161.5106    
       631   888.72038     -3951.8817      0             -3811.5031     -1165.8863    
       632   889.26017     -3951.9671      0             -3811.5032     -1178.172     
       633   890.09435     -3952.0989      0             -3811.5033     -1199.1941    
       634   891.21068     -3952.2753      0             -3811.5033     -1218.9127    
       635   892.59591     -3952.4943      0             -3811.5035     -1246.4148    
       636   894.22804     -3952.7523      0             -3811.5037     -1276.1075    
       637   896.07975     -3953.0452      0             -3811.5041     -1311.5029    
       638   898.11762     -3953.3673      0             -3811.5043     -1347.0578    
       639   900.30275     -3953.713       0             -3811.5049     -1385.6763    
       640   902.59029     -3954.0748      0             -3811.5054     -1430.7243    
       641   904.93858     -3954.4461      0             -3811.5057     -1475.8172    
       642   907.31179     -3954.8212      0             -3811.5059     -1519.3674    
       643   909.67575     -3955.1949      0             -3811.5062     -1558.6096    
       644   912.00135     -3955.5625      0             -3811.5065     -1592.9659    
       645   914.25802     -3955.9192      0             -3811.5068     -1626.9393    
       646   916.41586     -3956.2602      0             -3811.5069     -1657.3469    
       647   918.44761     -3956.5813      0             -3811.5071     -1678.8855    
       648   920.32627     -3956.8782      0             -3811.5072     -1696.3718    
       649   922.0246      -3957.1466      0             -3811.5074     -1704.9194    
       650   923.51478     -3957.3824      0             -3811.5078     -1708.724     
       651   924.76287     -3957.5798      0             -3811.508      -1716.0935    
       652   925.74125     -3957.7343      0             -3811.508      -1714.6315    
       653   926.44137     -3957.845       0             -3811.5081     -1703.0248    
       654   926.86259     -3957.9114      0             -3811.508      -1685.7987    
       655   927.00859     -3957.9343      0             -3811.5078     -1665.4647    
       656   926.88651     -3957.9149      0             -3811.5078     -1641.4901    
       657   926.51043     -3957.8553      0             -3811.5075     -1618.1707    
       658   925.90318     -3957.7591      0             -3811.5072     -1596.5945    
       659   925.08963     -3957.6304      0             -3811.507      -1575.5785    
       660   924.09199     -3957.4726      0             -3811.5069     -1552.3754    
       661   922.93399     -3957.2894      0             -3811.5066     -1535.7408    
       662   921.63888     -3957.0846      0             -3811.5063     -1517.361     
       663   920.22618     -3956.8611      0             -3811.5059     -1501.3643    
       664   918.71478     -3956.6221      0             -3811.5057     -1487.2394    
       665   917.1232      -3956.3706      0             -3811.5056     -1472.2773    
       666   915.46941     -3956.1095      0             -3811.5057     -1462.2598    
       667   913.77007     -3955.841       0             -3811.5056     -1452.0303    
       668   912.03788     -3955.5673      0             -3811.5055     -1441.772     
       669   910.28416     -3955.2901      0             -3811.5054     -1432.1415    
       670   908.52631     -3955.0122      0             -3811.5051     -1424.2163    
       671   906.78543     -3954.7369      0             -3811.5048     -1424.0942    
       672   905.07781     -3954.4671      0             -3811.5048     -1428.7303    
       673   903.4177      -3954.2048      0             -3811.5047     -1437.3602    
       674   901.82365     -3953.9528      0             -3811.5044     -1450.0342    
       675   900.31696     -3953.7146      0             -3811.5042     -1469.1541    
       676   898.92046     -3953.4938      0             -3811.504      -1494.3995    
       677   897.65198     -3953.2932      0             -3811.5038     -1524.9846    
       678   896.51944     -3953.1142      0             -3811.5037     -1569.6277    
       679   895.52904     -3952.9577      0             -3811.5036     -1612.7361    
       680   894.68823     -3952.8249      0             -3811.5036     -1660.9582    
       681   893.99855     -3952.7159      0             -3811.5035     -1712.2376    
       682   893.45742     -3952.6305      0             -3811.5037     -1765.8791    
       683   893.06111     -3952.568       0             -3811.5037     -1824.3822    
       684   892.80144     -3952.5271      0             -3811.5039     -1886.4583    
       685   892.66818     -3952.5062      0             -3811.504      -1957.0762    
       686   892.65311     -3952.5038      0             -3811.504      -2028.4154    
       687   892.75327     -3952.5197      0             -3811.5041     -2102.2759    
       688   892.9668      -3952.5536      0             -3811.5042     -2173.0743    
       689   893.28906     -3952.6046      0             -3811.5043     -2242.9151    
       690   893.71343     -3952.6716      0             -3811.5043     -2310.5182    
       691   894.23329     -3952.7539      0             -3811.5044     -2373.0418    
       692   894.84275     -3952.8501      0             -3811.5044     -2429.1442    
       693   895.5344      -3952.9593      0             -3811.5044     -2479.6628    
       694   896.30247     -3953.0808      0             -3811.5046     -2530.1534    
       695   897.14255     -3953.2136      0             -3811.5047     -2583.438     
       696   898.04527     -3953.3564      0             -3811.5049     -2632.8433    
       697   898.99628     -3953.5068      0             -3811.505      -2683.2424    
       698   899.98099     -3953.6625      0             -3811.5052     -2731.7748    
       699   900.98372     -3953.821       0             -3811.5053     -2778.7031    
       700   901.99011     -3953.9801      0             -3811.5055     -2827.6061    
       701   902.98477     -3954.1374      0             -3811.5056     -2874.963     
       702   903.95064     -3954.2902      0             -3811.5059     -2925.7883    
       703   904.87456     -3954.4363      0             -3811.506      -2979.8424    
       704   905.7476      -3954.5743      0             -3811.5061     -3031.5048    
       705   906.56407     -3954.7033      0             -3811.5061     -3087.8862    
       706   907.31775     -3954.8224      0             -3811.5062     -3144.816     
       707   907.99955     -3954.9301      0             -3811.5063     -3200.5821    
       708   908.59859     -3955.0251      0             -3811.5066     -3255.4891    
       709   909.10357     -3955.1049      0             -3811.5067     -3306.0864    
       710   909.50723     -3955.1689      0             -3811.5069     -3354.8068    
       711   909.80472     -3955.2161      0             -3811.507      -3401.0199    
       712   909.98787     -3955.2449      0             -3811.5069     -3442.4442    
       713   910.05089     -3955.2548      0             -3811.5069     -3476.6232    
       714   909.99445     -3955.2458      0             -3811.5068     -3507.9143    
       715   909.82098     -3955.2183      0             -3811.5067     -3533.6643    
       716   909.53931     -3955.1736      0             -3811.5065     -3558.4029    
       717   909.17243     -3955.1154      0             -3811.5063     -3591.6151    
       718   908.7416      -3955.0471      0             -3811.506      -3622.0804    
       719   908.26122     -3954.9711      0             -3811.5059     -3650.4003    
       720   907.74573     -3954.8896      0             -3811.5058     -3680.7004    
       721   907.20699     -3954.8044      0             -3811.5057     -3708.7876    
       722   906.65715     -3954.7174      0             -3811.5056     -3735.6945    
       723   906.10795     -3954.6307      0             -3811.5056     -3758.307     
       724   905.57001     -3954.5455      0             -3811.5054     -3777.8257    
       725   905.05109     -3954.4636      0             -3811.5054     -3794.7941    
       726   904.55476     -3954.3852      0             -3811.5054     -3810.6373    
       727   904.08339     -3954.3107      0             -3811.5054     -3822.7801    
       728   903.63586     -3954.2402      0             -3811.5055     -3832.7778    
       729   903.20614     -3954.1725      0             -3811.5057     -3843.5554    
       730   902.78526     -3954.106       0             -3811.5058     -3854.5807    
       731   902.36255     -3954.0394      0             -3811.5059     -3863.3963    
       732   901.92963     -3953.9711      0             -3811.506      -3867.9389    
       733   901.47982     -3953.9003      0             -3811.5062     -3866.723     
       734   901.0089      -3953.826       0             -3811.5063     -3859.0595    
       735   900.51456     -3953.7478      0             -3811.5063     -3850.1561    
       736   899.98951     -3953.6652      0             -3811.5065     -3845.5362    
       737   899.42805     -3953.5765      0             -3811.5066     -3831.1112    
       738   898.8293      -3953.4818      0             -3811.5064     -3808.9849    
       739   898.19384     -3953.3815      0             -3811.5065     -3781.0115    
       740   897.52582     -3953.2759      0             -3811.5064     -3747.6897    
       741   896.83556     -3953.1666      0             -3811.5062     -3716.7577    
       742   896.14571     -3953.0571      0             -3811.5056     -3689.7286    
       743   895.48643     -3952.9526      0             -3811.5053     -3676.9744    
       744   894.8803      -3952.8568      0             -3811.5052     -3669.594     
       745   894.34213     -3952.7718      0             -3811.5051     -3667.5572    
       746   893.88508     -3952.6995      0             -3811.5051     -3672.9185    
       747   893.51873     -3952.6415      0             -3811.505      -3683.7283    
       748   893.24578     -3952.5984      0             -3811.505      -3703.5463    
       749   893.06397     -3952.5698      0             -3811.5051     -3724.8106    
       750   892.96658     -3952.5545      0             -3811.5052     -3750.555     
       751   892.9431      -3952.551       0             -3811.5054     -3773.7705    
       752   892.9825      -3952.5575      0             -3811.5056     -3793.1851    
       753   893.06772     -3952.5712      0             -3811.5059     -3811.6566    
       754   893.17695     -3952.5887      0             -3811.5061     -3827.4468    
       755   893.29191     -3952.6072      0             -3811.5064     -3841.2304    
       756   893.39975     -3952.6242      0             -3811.5064     -3853.35      
       757   893.49837     -3952.6396      0             -3811.5062     -3864.2558    
       758   893.58852     -3952.6538      0             -3811.5062     -3868.1554    
       759   893.66712     -3952.6664      0             -3811.5064     -3868.2555    
       760   893.74397     -3952.6781      0             -3811.5059     -3875.3409    
       761   893.84056     -3952.693       0             -3811.5056     -3883.5274    
       762   893.9766      -3952.7142      0             -3811.5054     -3890.1348    
       763   894.16829     -3952.7443      0             -3811.5051     -3896.7323    
       764   894.4255      -3952.7848      0             -3811.505      -3906.5122    
       765   894.75283     -3952.8365      0             -3811.505      -3917.1515    
       766   895.15106     -3952.8994      0             -3811.505      -3930.6153    
       767   895.60809     -3952.9722      0             -3811.5056     -3948.7188    
       768   896.10423     -3953.0506      0             -3811.5056     -3972.1157    
       769   896.62221     -3953.1325      0             -3811.5057     -3992.1062    
       770   897.14839     -3953.2158      0             -3811.5059     -4009.0254    
       771   897.66652     -3953.2978      0             -3811.5061     -4022.7244    
       772   898.15708     -3953.3754      0             -3811.5062     -4033.3681    
       773   898.59882     -3953.4454      0             -3811.5064     -4045.5898    
       774   898.96953     -3953.504       0             -3811.5064     -4052.8882    
       775   899.25442     -3953.5492      0             -3811.5067     -4057.9124    
       776   899.44257     -3953.5793      0             -3811.507      -4063.0761    
       777   899.51822     -3953.5912      0             -3811.507      -4074.1598    
       778   899.47556     -3953.5843      0             -3811.5068     -4078.93      
       779   899.32617     -3953.5606      0             -3811.5067     -4077.6123    
       780   899.08299     -3953.5219      0             -3811.5065     -4073.2161    
       781   898.76217     -3953.4711      0             -3811.5063     -4063.5245    
       782   898.38409     -3953.4112      0             -3811.5062     -4049.2042    
       783   897.96487     -3953.3448      0             -3811.506      -4031.5126    
       784   897.51743     -3953.2739      0             -3811.5058     -4016.017     
       785   897.05359     -3953.2007      0             -3811.5058     -4004.8718    
       786   896.57965     -3953.1259      0             -3811.5058     -3995.0726    
       787   896.09489     -3953.0495      0             -3811.506      -3993.4112    
       788   895.59447     -3952.9704      0             -3811.5059     -3997.6413    
       789   895.07171     -3952.8878      0             -3811.506      -4001.4581    
       790   894.52405     -3952.8013      0             -3811.5059     -4008.4565    
       791   893.953       -3952.711       0             -3811.5059     -4015.0203    
       792   893.36241     -3952.6176      0             -3811.5058     -4018.8421    
       793   892.76214     -3952.5226      0             -3811.5056     -4024.6667    
       794   892.16726     -3952.4285      0             -3811.5054     -4031.3917    
       795   891.59372     -3952.3377      0             -3811.5052     -4041.3942    
       796   891.05634     -3952.2527      0             -3811.5051     -4053.4145    
       797   890.56919     -3952.1755      0             -3811.5049     -4065.6578    
       798   890.14431     -3952.1082      0             -3811.5046     -4081.7153    
       799   889.793       -3952.0526      0             -3811.5045     -4099.7074    
       800   889.52396     -3952.0102      0             -3811.5047     -4122.9248    
       801   889.33996     -3951.9811      0             -3811.5046     -4151.0771    
       802   889.24332     -3951.966       0             -3811.5048     -4180.4718    
       803   889.23857     -3951.9652      0             -3811.5047     -4208.7297    
       804   889.32861     -3951.9794      0             -3811.5047     -4236.1314    
       805   889.51941     -3952.0094      0             -3811.5046     -4264.499     
       806   889.82298     -3952.0574      0             -3811.5046     -4298.1592    
       807   890.24878     -3952.1245      0             -3811.5044     -4334.6416    
       808   890.80458     -3952.2123      0             -3811.5045     -4373.1066    
       809   891.49494     -3952.3214      0             -3811.5045     -4416.2349    
       810   892.32008     -3952.4516      0             -3811.5044     -4463.6314    
       811   893.28121     -3952.6034      0             -3811.5043     -4514.4407    
       812   894.38157     -3952.7772      0             -3811.5043     -4563.1648    
       813   895.62366     -3952.9733      0             -3811.5043     -4618.2607    
       814   897.00855     -3953.1921      0             -3811.5043     -4670.7953    
       815   898.53562     -3953.4335      0             -3811.5045     -4725.3199    
       816   900.20038     -3953.6965      0             -3811.5046     -4782.218     
       817   901.99454     -3953.98        0             -3811.5046     -4836.4594    
       818   903.90637     -3954.2822      0             -3811.5048     -4895.1188    
       819   905.9203      -3954.6005      0             -3811.5051     -4953.5391    
       820   908.01464     -3954.9316      0             -3811.5054     -5010.869     
       821   910.16369     -3955.2714      0             -3811.5056     -5067.0666    
       822   912.33932     -3955.6154      0             -3811.506      -5125.9993    
       823   914.50916     -3955.9583      0             -3811.5062     -5180.516     
       824   916.64074     -3956.2954      0             -3811.5066     -5234.0924    
       825   918.70266     -3956.6213      0             -3811.5068     -5283.7374    
       826   920.66932     -3956.9323      0             -3811.5071     -5328.3775    
       827   922.52205     -3957.2251      0             -3811.5073     -5367.8676    
       828   924.2462      -3957.4976      0             -3811.5074     -5399.3423    
       829   925.83186     -3957.7481      0             -3811.5075     -5426.7772    
       830   927.2713      -3957.9756      0             -3811.5076     -5451.82      
       831   928.55905     -3958.179       0             -3811.5077     -5470.5496    
       832   929.69253     -3958.3581      0             -3811.5077     -5489.114     
       833   930.6705      -3958.5127      0             -3811.5078     -5504.0712    
       834   931.4903      -3958.6424      0             -3811.508      -5517.4108    
       835   932.14649     -3958.746       0             -3811.508      -5528.6029    
       836   932.63122     -3958.8228      0             -3811.5082     -5538.366     
       837   932.93327     -3958.8707      0             -3811.5084     -5542.8552    
       838   933.03955     -3958.8875      0             -3811.5084     -5541.7777    
       839   932.9371      -3958.8714      0             -3811.5085     -5538.2109    
       840   932.6123      -3958.8202      0             -3811.5086     -5531.9208    
       841   932.05048     -3958.7315      0             -3811.5086     -5518.4281    
       842   931.23839     -3958.6034      0             -3811.5088     -5501.8409    
       843   930.16707     -3958.4342      0             -3811.5088     -5478.8494    
       844   928.83136     -3958.2232      0             -3811.5088     -5452.7434    
       845   927.22847     -3957.9701      0             -3811.5089     -5421.252     
       846   925.35959     -3957.6748      0             -3811.5088     -5388.638     
       847   923.23253     -3957.3387      0             -3811.5087     -5350.5795    
       848   920.86207     -3956.9639      0             -3811.5084     -5307.4682    
       849   918.26763     -3956.5538      0             -3811.5081     -5262.1696    
       850   915.47171     -3956.112       0             -3811.5078     -5216.489     
       851   912.49683     -3955.6418      0             -3811.5075     -5167.8085    
       852   909.36465     -3955.1469      0             -3811.5074     -5120.506     
       853   906.09822     -3954.6307      0             -3811.5072     -5070.8979    
       854   902.72031     -3954.097       0             -3811.507      -5019.2713    
       855   899.2533      -3953.5492      0             -3811.5068     -4968.6857    
       856   895.71818     -3952.9905      0             -3811.5065     -4912.945     
       857   892.13627     -3952.4245      0             -3811.5063     -4857.0761    
       858   888.52943     -3951.8546      0             -3811.5061     -4796.0511    
       859   884.92848     -3951.2855      0             -3811.5059     -4740.1479    
       860   881.36781     -3950.7229      0             -3811.5056     -4685.9545    
       861   877.87618     -3950.1711      0             -3811.5054     -4633.7693    
       862   874.4831      -3949.6349      0             -3811.5052     -4581.0004    
       863   871.21535     -3949.1185      0             -3811.5049     -4530.0269    
       864   868.09743     -3948.6257      0             -3811.5046     -4481.8791    
       865   865.1528      -3948.1603      0             -3811.5043     -4436.8084    
       866   862.41153     -3947.7267      0             -3811.5037     -4395.6453    
       867   859.91012     -3947.3313      0             -3811.5034     -4360.8059    
       868   857.68225     -3946.979       0             -3811.503      -4333.0227    
       869   855.76051     -3946.6751      0             -3811.5027     -4311.9366    
       870   854.17355     -3946.4241      0             -3811.5023     -4295.4926    
       871   852.94877     -3946.2305      0             -3811.5022     -4293.6358    
       872   852.10578     -3946.0972      0             -3811.502      -4300.8629    
       873   851.65139     -3946.0254      0             -3811.502      -4316.8596    
       874   851.58364     -3946.0148      0             -3811.5021     -4346.7396    
       875   851.89194     -3946.0636      0             -3811.5022     -4384.773     
       876   852.56126     -3946.1695      0             -3811.5025     -4434.4278    
       877   853.57315     -3946.3295      0             -3811.5026     -4490.9229    
       878   854.90636     -3946.5404      0             -3811.5029     -4553.3887    
       879   856.53458     -3946.7979      0             -3811.5032     -4625.3723    
       880   858.43606     -3947.0982      0             -3811.5032     -4702.5266    
       881   860.59345     -3947.4392      0             -3811.5034     -4778.5286    
       882   862.98665     -3947.8174      0             -3811.5035     -4857.9845    
       883   865.59557     -3948.2296      0             -3811.5037     -4935.729     
       884   868.39691     -3948.6725      0             -3811.5041     -5014.918     
       885   871.36575     -3949.1416      0             -3811.5042     -5102.4652    
       886   874.48054     -3949.6336      0             -3811.5043     -5186.2976    
       887   877.72497     -3950.1461      0             -3811.5043     -5269.1837    
       888   881.08362     -3950.6768      0             -3811.5044     -5348.2072    
       889   884.53922     -3951.2228      0             -3811.5046     -5428.0041    
       890   888.07181     -3951.7811      0             -3811.5049     -5505.588     
       891   891.65465     -3952.3474      0             -3811.5053     -5585.1411    
       892   895.25417     -3952.9164      0             -3811.5057     -5667.6063    
       893   898.83495     -3953.4824      0             -3811.5061     -5751.6593    
       894   902.35929     -3954.0394      0             -3811.5064     -5832.5414    
       895   905.79192     -3954.582       0             -3811.5069     -5915.143     
       896   909.10082     -3955.1051      0             -3811.5073     -5995.7576    
       897   912.25432     -3955.6036      0             -3811.5076     -6080.2069    
       898   915.22129     -3956.0725      0             -3811.5079     -6163.7784    
       899   917.97695     -3956.508       0             -3811.5081     -6243.5596    
       900   920.5034      -3956.9072      0             -3811.5083     -6319.5715    
       901   922.7853      -3957.2677      0             -3811.5083     -6388.6533    
       902   924.81184     -3957.5878      0             -3811.5083     -6450.8707    
       903   926.57519     -3957.8664      0             -3811.5084     -6502.9771    
       904   928.0692      -3958.1024      0             -3811.5084     -6547.7653    
       905   929.28867     -3958.2951      0             -3811.5085     -6581.7476    
       906   930.22803     -3958.4435      0             -3811.5085     -6604.0423    
       907   930.88242     -3958.547       0             -3811.5087     -6617.0456    
       908   931.24846     -3958.6049      0             -3811.5087     -6617.7149    
       909   931.3237      -3958.6169      0             -3811.5088     -6606.8004    
       910   931.10624     -3958.5825      0             -3811.5088     -6586.3554    
       911   930.5972      -3958.5021      0             -3811.5088     -6559.6925    
       912   929.80262     -3958.3766      0             -3811.5088     -6520.1442    
       913   928.73471     -3958.2079      0             -3811.5087     -6479.7406    
       914   927.41227     -3957.9988      0             -3811.5086     -6434.8307    
       915   925.8579      -3957.753       0             -3811.5083     -6386.1375    
       916   924.09697     -3957.4744      0             -3811.5078     -6339.0234    
       917   922.16152     -3957.1684      0             -3811.5075     -6292.6616    
       918   920.08437     -3956.8399      0             -3811.5071     -6249.8219    
       919   917.89793     -3956.4942      0             -3811.5068     -6208.6521    
       920   915.63533     -3956.1364      0             -3811.5064     -6170.0253    
       921   913.32794     -3955.7715      0             -3811.506      -6130.0173    
       922   911.00505     -3955.4044      0             -3811.5058     -6097.6849    
       923   908.69112     -3955.0387      0             -3811.5056     -6067.4734    
       924   906.40775     -3954.6778      0             -3811.5054     -6035.8421    
       925   904.17174     -3954.3246      0             -3811.5054     -6007.8908    
       926   901.99408     -3953.9805      0             -3811.5052     -5978.6572    
       927   899.88345     -3953.6471      0             -3811.5052     -5945.5532    
       928   897.84803     -3953.3254      0             -3811.505      -5909.8774    
       929   895.8944      -3953.0169      0             -3811.5051     -5874.7445    
       930   894.02599     -3952.7217      0             -3811.5051     -5839.3574    
       931   892.24591     -3952.4404      0             -3811.5049     -5801.6791    
       932   890.56107     -3952.1743      0             -3811.5049     -5758.3743    
       933   888.98125     -3951.9247      0             -3811.5049     -5714.943     
       934   887.51637     -3951.6933      0             -3811.5049     -5671.9104    
       935   886.17777     -3951.4819      0             -3811.5049     -5628.6534    
       936   884.97526     -3951.2919      0             -3811.5048     -5590.96      
       937   883.91497     -3951.1243      0             -3811.5048     -5557.2859    
       938   883.00113     -3950.9799      0             -3811.5047     -5526.9241    
       939   882.23601     -3950.859       0             -3811.5046     -5503.4735    
       940   881.61788     -3950.7615      0             -3811.5048     -5486.5775    
       941   881.13896     -3950.686       0             -3811.505      -5473.0661    
       942   880.78774     -3950.6308      0             -3811.5052     -5466.7235    
       943   880.54839     -3950.5933      0             -3811.5055     -5460.4401    
       944   880.40787     -3950.571       0             -3811.5054     -5460.0964    
       945   880.35934     -3950.5634      0             -3811.5054     -5465.7201    
       946   880.39787     -3950.5695      0             -3811.5055     -5475.6006    
       947   880.51901     -3950.5887      0             -3811.5056     -5488.3427    
       948   880.7164      -3950.6201      0             -3811.5058     -5499.2655    
       949   880.9882      -3950.6629      0             -3811.5056     -5510.6345    
       950   881.3356      -3950.7177      0             -3811.5055     -5525.1413    
       951   881.75686     -3950.7842      0             -3811.5055     -5537.7383    
       952   882.24974     -3950.8621      0             -3811.5056     -5552.5626    
       953   882.81377     -3950.9511      0             -3811.5054     -5569.8198    
       954   883.45441     -3951.0522      0             -3811.5054     -5587.972     
       955   884.17522     -3951.1661      0             -3811.5054     -5608.8842    
       956   884.97598     -3951.2927      0             -3811.5055     -5631.9771    
       957   885.85148     -3951.4312      0             -3811.5057     -5657.0832    
       958   886.79043     -3951.5796      0             -3811.5058     -5682.8615    
       959   887.77948     -3951.736       0             -3811.506      -5704.1448    
       960   888.80018     -3951.8974      0             -3811.5062     -5723.0705    
       961   889.83101     -3952.0604      0             -3811.5064     -5743.6009    
       962   890.84789     -3952.2216      0             -3811.5069     -5759.0015    
       963   891.82635     -3952.3761      0             -3811.5068     -5775.4903    
       964   892.74749     -3952.5217      0             -3811.507      -5795.1965    
       965   893.60221     -3952.6566      0             -3811.5069     -5816.9193    
       966   894.38527     -3952.7805      0             -3811.5071     -5836.6264    
       967   895.0877      -3952.8917      0             -3811.5073     -5858.8504    
       968   895.69979     -3952.9885      0             -3811.5075     -5880.6906    
       969   896.21492     -3953.0699      0             -3811.5074     -5902.9709    
       970   896.63259     -3953.1356      0             -3811.5072     -5919.7576    
       971   896.95548     -3953.1864      0             -3811.507      -5932.8051    
       972   897.18484     -3953.2228      0             -3811.5072     -5941.5853    
       973   897.32263     -3953.2445      0             -3811.5071     -5943.7461    
       974   897.37478     -3953.2527      0             -3811.5071     -5941.6515    
       975   897.34888     -3953.2486      0             -3811.507      -5930.4141    
       976   897.25095     -3953.2331      0             -3811.507      -5916.129     
       977   897.08532     -3953.2068      0             -3811.5069     -5897.8283    
       978   896.8609      -3953.1714      0             -3811.5069     -5879.7478    
       979   896.58948     -3953.1285      0             -3811.5069     -5864.7389    
       980   896.28001     -3953.0797      0             -3811.507      -5854.1978    
       981   895.93607     -3953.0255      0             -3811.5071     -5846.6621    
       982   895.54971     -3952.9644      0             -3811.507      -5846.3531    
       983   895.11618     -3952.8958      0             -3811.507      -5842.4836    
       984   894.64277     -3952.821       0             -3811.5069     -5836.3642    
       985   894.13911     -3952.7412      0             -3811.5066     -5822.2153    
       986   893.61991     -3952.659       0             -3811.5065     -5802.8037    
       987   893.10144     -3952.577       0             -3811.5063     -5784.8945    
       988   892.59614     -3952.4971      0             -3811.5063     -5764.9035    
       989   892.11229     -3952.4205      0             -3811.5061     -5740.2365    
       990   891.65756     -3952.3485      0             -3811.506      -5713.9871    
       991   891.23908     -3952.2825      0             -3811.506      -5685.9593    
       992   890.8633      -3952.2231      0             -3811.506      -5657.0234    
       993   890.52872     -3952.1704      0             -3811.5061     -5629.5295    
       994   890.23024     -3952.1233      0             -3811.5062     -5602.2083    
       995   889.96464     -3952.0813      0             -3811.5061     -5575.3016    
       996   889.72972     -3952.0442      0             -3811.5061     -5548.1218    
       997   889.52841     -3952.0124      0             -3811.5061     -5513.8154    
       998   889.36682     -3951.9867      0             -3811.5059     -5482.5539    
       999   889.2518      -3951.9685      0             -3811.5059     -5449.8564    
      1000   889.18916     -3951.9585      0             -3811.5058     -5413.0553    
Loop time of 2.53602 on 1 procs for 1000 steps with 1223 atoms

Performance: 34.069 ns/day, 0.704 hours/ns, 394.319 timesteps/s, 482.252 katom-step/s
99.7% CPU use with 1 MPI tasks x 1 OpenMP threads

MPI task timing breakdown:
Section |  min time  |  avg time  |  max time  |%varavg| %total
---------------------------------------------------------------
Pair    | 2.4539     | 2.4539     | 2.4539     |   0.0 | 96.76
Neigh   | 0.045753   | 0.045753   | 0.045753   |   0.0 |  1.80
Comm    | 0.015334   | 0.015334   | 0.015334   |   0.0 |  0.60
Output  | 0.0089446  | 0.0089446  | 0.0089446  |   0.0 |  0.35
Modify  | 0.0082358  | 0.0082358  | 0.0082358  |   0.0 |  0.32
Other   |            | 0.003803   |            |       |  0.15

Nlocal:           1223 ave        1223 max        1223 min
Histogram: 1 0 0 0 0 0 0 0 0 0
Nghost:           4001 ave        4001 max        4001 min
Histogram: 1 0 0 0 0 0 0 0 0 0
Neighs:          81997 ave       81997 max       81997 min
Histogram: 1 0 0 0 0 0 0 0 0 0

Total # of neighbors = 81997
Ave neighs/atom = 67.045789
Neighbor list builds = 19
Dangerous builds = 0


# write_dump all custom ./system2.lammpsdump id type mass x y z vx vy vz
# fix F_NVT all nvt temp ${temperature} ${temperature} 1
#
# run ${run}
#
# write_dump all custom ./system.lammpsdump id type mass x y z vx vy vz
# # write_dump all custom ./system2.lammpsdump id type mass x y z vx vy vz
Total wall time: 0:00:02
