units metal
atom_style atomic

variable lp equal 4.133
variable bx equal $(5 * sqrt(2))
variable by equal $(5 * sqrt(2))
variable bz equal 7
variable temperature equal 1900
variable random_seed equal 9
variable radius equal 9
variable run equal 30000

variable offset equal 0
# variable offset equal $(v_lp / sqrt(2))

region BOX block 0 $(v_lp * v_bx) 0 $(v_lp * v_by) 0 $(v_lp * v_bz)
create_box 2 BOX

lattice fcc ${lp} &
    origin 0.00001 0.00001 0.50001 &
    orient x 1 1 0 &
    orient y -1 1 0 &
    orient z 0 0 1 &
    spacing 1 1 1

create_atoms 1 region BOX

# velocity all create ${temperature} ${random_seed}

# write_dump all custom ./lattice.lammpsdump id type mass x y z vx vy vz

region BUBBLE sphere $((xlo + xhi) / 2 + v_offset) $((ylo + yhi) / 2) $((zlo + zhi) / 2) ${radius} units box
delete_atoms region BUBBLE

pair_style eam/alloy
pair_coeff * * AlHe_Men_exp6.eam Al He

fix F_NVE all nve

velocity all create ${temperature} ${random_seed}
run 0
velocity all scale ${temperature}

write_dump all custom ./system.lammpsdump id type mass x y z vx vy vz


thermo 1
run 1000


# write_dump all custom ./system2.lammpsdump id type mass x y z vx vy vz
# fix F_NVT all nvt temp ${temperature} ${temperature} 1
#
# run ${run}
#
# write_dump all custom ./system.lammpsdump id type mass x y z vx vy vz
# # write_dump all custom ./system2.lammpsdump id type mass x y z vx vy vz
